p cnf 20 47
a 16 15 0
e 1 2 3 4 5 6 7 8 9 10 11 12 13 14 17 18 19 20 0
1 -2 -3 0
-1 2 -3 0
1 2 3 0
-1 -2 3 0
-5 6 0
5 6 0
-7 4 0
-7 6 0
-4 -6 7 0
-3 7 -8 0
3 -7 -8 0
-3 -7 8 0
3 7 8 0
-9 -10 -11 0
9 10 -11 0
-9 10 11 0
9 -10 11 0
12 11 0
12 11 0
-11 -12 0
-13 -9 -14 0
13 9 -14 0
-13 9 14 0
13 -9 14 0
-15 -12 0
-15 -14 0
12 14 15 0
16 9 -17 0
-16 -9 -17 0
16 -9 17 0
-16 9 17 0
-17 -16 -18 0
17 16 -18 0
-17 16 18 0
17 -16 18 0
-15 18 -19 0
15 -18 -19 0
-15 -18 19 0
15 18 19 0
-20 8 0
-20 -19 0
-8 19 20 0
16 10 -2 8 -11 4 15 0
4 -15 5 3 0
-5 -16 -12 10 14 0
14 16 -2 -10 17 0
20 0
